n = 50;
C = 5416;
w = [248,9,412,175,81,248,44,280,416,31,174,128,431,113,278,84,190,346,87,5,126,286,303,426,254,333,138,75,450,91,121,386,223,457,181,210,191,51,497,1,63,323,51,450,314,106,7,440,12,486];
p = [1250,55,2070,885,415,1250,230,1410,2090,165,880,650,2165,575,1400,430,960,1740,445,35,640,1440,1525,2140,1280,1675,700,385,2260,465,615,1940,1125,2295,915,1060,965,265,2495,15,325,1625,265,2260,1580,540,45,2210,70,2440];
